%%%mzn-stat: initTime=0.003185898
%%%mzn-stat: objective=364
%%%mzn-stat: nodes=1825
%%%mzn-stat: restarts=0
%%%mzn-stat: peakDepth=96
%%%mzn-stat: solveTime=0.11376413
%%%mzn-stat: variables=298
%%%mzn-stat: propagators=386
%%%mzn-stat: failures=1412
%%%mzn-stat: propagations=147801
%%%mzn-stat: nogoods=1412
%%%mzn-stat: AverageConflictSize=5.948300283286119
%%%mzn-stat: NumUnitNogoodsLearned=363
%%%mzn-stat: AverageLearnedNogoodLength=19.873229461756374
%%%mzn-stat: AverageBacktrackAmount=0
%%%mzn-stat: AverageLbd=5.5007082152974505
%%%mzn-stat-end
maxleg = 364;
succ = array1d(1..20,[4, 12, 17, 10, 1, 2, 14, 18, 6, 13, 19, 7, 15, 5, 3, 11, 16, 9, 20, 8]);
% time elapsed: 0.32 s
----------
==========
% time elapsed: 0.32 s
%%%mzn-stat: initTime=0.003185898
%%%mzn-stat: objective=364
%%%mzn-stat: nodes=1825
%%%mzn-stat: restarts=0
%%%mzn-stat: peakDepth=96
%%%mzn-stat: solveTime=0.113767693
%%%mzn-stat: variables=298
%%%mzn-stat: propagators=386
%%%mzn-stat: failures=1412
%%%mzn-stat: propagations=147801
%%%mzn-stat: nogoods=1412
%%%mzn-stat: AverageConflictSize=5.948300283286119
%%%mzn-stat: NumUnitNogoodsLearned=363
%%%mzn-stat: AverageLearnedNogoodLength=19.873229461756374
%%%mzn-stat: AverageBacktrackAmount=0
%%%mzn-stat: AverageLbd=5.5007082152974505
%%%mzn-stat-end
